NAME: instance_906
TYPE: TSP
DIMENSION: 20
EDGE_WEIGHT_TYPE: EUC_2D
NODE_COORD_SECTION
0 89.76 45.18
1 62.15 50.60
2 95.19 69.42
3 79.15 82.42
4 8.62 79.04
5 63.59 67.86
6 62.36 36.55
7 68.12 99.66
8 40.35 86.65
9 15.61 90.59
10 38.08 6.34
11 52.76 15.64
12 24.80 88.10
13 74.51 80.67
14 78.49 86.59
15 60.87 93.59
16 85.43 1.54
17 98.39 62.52
18 47.46 25.73
19 5.63 48.09
EOF
